/* objective function */
max: x11 + x21 + x31 + 3 x41 + 3 x51 + x61 + x12 + x22 + x32 + 3 x42 + 3 x52 + x62 + x13 + x23 + x33 + 3 x43 + 3 x53 + x63;

/* constraints */
x11 + x12 + x13  = 1;
x21 + x22 + x23  = 1;
x31 + x32 + x33  = 1;
x41 + x42 + x43  = 1;
x51 + x52 + x53  = 1;
x61 + x62 + x63  = 1;

x11 + x21 + x31 + x41 + x51 + x61 = 2;
x12 + x22 + x32 + x42 + x52 + x61 = 2;
x13 + x23 + x33 + x43 + x53 + x63 = 2;

p1: x11 + x21 + x31 + 3 x41 + 3 x51 + x61 >= 2;
p2: x12 + x22 + x32 + 3 x42 + 3 x52 + x62 >= 2;
p3: x13 + x23 + x33 + 3 x43 + 3 x53 + x63 >= 2;

x11 <= 1;
x12 <= 1;
x13 <= 1;
x21 <= 1;
x22 <= 1;
x23 <= 1;
x31 <= 1;
x32 <= 1;
x33 <= 1;
x41 <= 1;
x42 <= 1;
x43 <= 1;
x51 <= 1;
x52 <= 1;
x53 <= 1;
x61 <= 1;
x62 <= 1;
x63 <= 1;

int x11, x12, x13, x21, x22, x23, x31, x32, x33, x41, x42, x43, x51, x52, x53, x61, x62, x63;
